47 35 24 31 8 17 69 64 0 67 79 71 25 66 41 44 56 61 22 72 50 12 43 74 46 9 45 4 1 57 19 14 7 34 33 16 54 52 58 65 23 73 70 38 20 3 63 53 62 37 29 5 77 51 26 11 78 49 13 55 60 21 42 6 48 68 76 15 2 10 36 40 39 59 27 30 32 75 18 28
